25° run output:
{
    "Function": "kroB400.tsp",
    "Problem dimension": [
        42,
        341,
        199,
        254,
        213,
        184,
        179,
        5,
        186,
        46,
        247,
        66,
        9,
        357,
        368,
        388,
        390,
        306,
        154,
        123,
        336,
        381,
        204,
        176,
        122,
        223,
        276,
        93,
        321,
        239,
        84,
        169,
        69,
        36,
        215,
        22,
        202,
        60,
        138,
        21,
        373,
        232,
        18,
        102,
        333,
        125,
        260,
        210,
        327,
        10,
        164,
        383,
        41,
        87,
        38,
        281,
        299,
        121,
        334,
        79,
        318,
        135,
        265,
        262,
        20,
        256,
        175,
        380,
        203,
        395,
        88,
        301,
        160,
        273,
        39,
        45,
        314,
        167,
        77,
        14,
        150,
        356,
        165,
        275,
        258,
        266,
        224,
        149,
        201,
        104,
        355,
        8,
        34,
        234,
        370,
        29,
        70,
        372,
        76,
        44,
        105,
        182,
        246,
        243,
        264,
        302,
        375,
        16,
        33,
        352,
        141,
        110,
        64,
        360,
        280,
        114,
        196,
        197,
        128,
        2,
        304,
        233,
        249,
        240,
        140,
        305,
        378,
        163,
        23,
        343,
        270,
        115,
        324,
        82,
        161,
        311,
        297,
        168,
        219,
        397,
        48,
        78,
        26,
        63,
        226,
        120,
        338,
        274,
        85,
        137,
        394,
        51,
        142,
        227,
        392,
        326,
        382,
        205,
        145,
        374,
        211,
        377,
        259,
        366,
        50,
        346,
        229,
        354,
        225,
        1,
        230,
        399,
        80,
        362,
        100,
        117,
        231,
        11,
        261,
        310,
        200,
        91,
        24,
        364,
        68,
        99,
        290,
        124,
        155,
        143,
        25,
        195,
        350,
        212,
        81,
        218,
        282,
        144,
        342,
        52,
        293,
        40,
        267,
        337,
        283,
        118,
        147,
        328,
        379,
        277,
        353,
        339,
        62,
        30,
        271,
        365,
        129,
        12,
        191,
        207,
        162,
        95,
        49,
        73,
        361,
        94,
        74,
        65,
        358,
        298,
        116,
        351,
        316,
        241,
        345,
        348,
        59,
        86,
        146,
        109,
        235,
        6,
        208,
        279,
        322,
        221,
        387,
        236,
        159,
        190,
        19,
        206,
        15,
        347,
        3,
        323,
        330,
        284,
        320,
        329,
        133,
        148,
        319,
        286,
        214,
        172,
        242,
        317,
        285,
        272,
        75,
        31,
        157,
        35,
        289,
        398,
        251,
        112,
        307,
        371,
        107,
        278,
        72,
        47,
        393,
        111,
        108,
        43,
        193,
        4,
        131,
        209,
        296,
        248,
        257,
        7,
        61,
        308,
        313,
        340,
        217,
        391,
        106,
        268,
        126,
        119,
        292,
        71,
        220,
        263,
        166,
        367,
        113,
        170,
        183,
        132,
        171,
        97,
        222,
        83,
        376,
        312,
        237,
        349,
        386,
        56,
        291,
        315,
        37,
        269,
        252,
        253,
        178,
        192,
        303,
        198,
        238,
        294,
        344,
        32,
        13,
        332,
        288,
        187,
        89,
        173,
        153,
        309,
        53,
        180,
        389,
        244,
        228,
        385,
        384,
        127,
        194,
        90,
        96,
        28,
        67,
        27,
        101,
        396,
        174,
        92,
        130,
        54,
        139,
        181,
        245,
        55,
        325,
        255,
        216,
        103,
        369,
        295,
        151,
        185,
        335,
        359,
        134,
        331,
        152,
        136,
        17,
        158,
        58,
        156,
        98,
        57,
        250,
        287,
        0,
        188,
        363,
        300,
        189,
        177
    ],
    "Global Optimum": 0,
    "Algorithm": "Genetic algorithm",
    "Parameters": {
        "population": 30,
        "offspring": 30,
        "mutation probability": 0.0025,
        "crossover probability": 0.9
    },
    "Fitness": 491146,
    "Solution": [
        42,
        341,
        199,
        254,
        213,
        184,
        179,
        5,
        186,
        46,
        247,
        66,
        9,
        357,
        368,
        388,
        390,
        306,
        154,
        123,
        336,
        381,
        204,
        176,
        122,
        223,
        276,
        93,
        321,
        239,
        84,
        169,
        69,
        36,
        215,
        22,
        202,
        60,
        138,
        21,
        373,
        232,
        18,
        102,
        333,
        125,
        260,
        210,
        327,
        10,
        164,
        383,
        41,
        87,
        38,
        281,
        299,
        121,
        334,
        79,
        318,
        135,
        265,
        262,
        20,
        256,
        175,
        380,
        203,
        395,
        88,
        301,
        160,
        273,
        39,
        45,
        314,
        167,
        77,
        14,
        150,
        356,
        165,
        275,
        258,
        266,
        224,
        149,
        201,
        104,
        355,
        8,
        34,
        234,
        370,
        29,
        70,
        372,
        76,
        44,
        105,
        182,
        246,
        243,
        264,
        302,
        375,
        16,
        33,
        352,
        141,
        110,
        64,
        360,
        280,
        114,
        196,
        197,
        128,
        2,
        304,
        233,
        249,
        240,
        140,
        305,
        378,
        163,
        23,
        343,
        270,
        115,
        324,
        82,
        161,
        311,
        297,
        168,
        219,
        397,
        48,
        78,
        26,
        63,
        226,
        120,
        338,
        274,
        85,
        137,
        394,
        51,
        142,
        227,
        392,
        326,
        382,
        205,
        145,
        374,
        211,
        377,
        259,
        366,
        50,
        346,
        229,
        354,
        225,
        1,
        230,
        399,
        80,
        362,
        100,
        117,
        231,
        11,
        261,
        310,
        200,
        91,
        24,
        364,
        68,
        99,
        290,
        124,
        155,
        143,
        25,
        195,
        350,
        212,
        81,
        218,
        282,
        144,
        342,
        52,
        293,
        40,
        267,
        337,
        283,
        118,
        147,
        328,
        379,
        277,
        353,
        339,
        62,
        30,
        271,
        365,
        129,
        12,
        191,
        207,
        162,
        95,
        49,
        73,
        361,
        94,
        74,
        65,
        358,
        298,
        116,
        351,
        316,
        241,
        345,
        348,
        59,
        86,
        146,
        109,
        235,
        6,
        208,
        279,
        322,
        221,
        387,
        236,
        159,
        190,
        19,
        206,
        15,
        347,
        3,
        323,
        330,
        284,
        320,
        329,
        133,
        148,
        319,
        286,
        214,
        172,
        242,
        317,
        285,
        272,
        75,
        31,
        157,
        35,
        289,
        398,
        251,
        112,
        307,
        371,
        107,
        278,
        72,
        47,
        393,
        111,
        108,
        43,
        193,
        4,
        131,
        209,
        296,
        248,
        257,
        7,
        61,
        308,
        313,
        340,
        217,
        391,
        106,
        268,
        126,
        119,
        292,
        71,
        220,
        263,
        166,
        367,
        113,
        170,
        183,
        132,
        171,
        97,
        222,
        83,
        376,
        312,
        237,
        349,
        386,
        56,
        291,
        315,
        37,
        269,
        252,
        253,
        178,
        192,
        303,
        198,
        238,
        294,
        344,
        32,
        13,
        332,
        288,
        187,
        89,
        173,
        153,
        309,
        53,
        180,
        389,
        244,
        228,
        385,
        384,
        127,
        194,
        90,
        96,
        28,
        67,
        27,
        101,
        396,
        174,
        92,
        130,
        54,
        139,
        181,
        245,
        55,
        325,
        255,
        216,
        103,
        369,
        295,
        151,
        185,
        335,
        359,
        134,
        331,
        152,
        136,
        17,
        158,
        58,
        156,
        98,
        57,
        250,
        287,
        0,
        188,
        363,
        300,
        189,
        177
    ],
    "Nb of functions evaluations": 50010,
    "Computational time in seconds": 243.53165888786316,
    "Stopping criterion in evaluations": 50000
}